;; unsat

(declare-const x1 sl.list.loc)
(declare-const x2 sl.list.loc)
(declare-const x3 sl.list.loc)
(declare-const x4 sl.list.loc)
(declare-const x5 sl.list.loc)
(declare-const x6 sl.list.loc)
(declare-const x7 sl.list.loc)
(declare-const x8 sl.list.loc)
(declare-const x9 sl.list.loc)
(declare-const x10 sl.list.loc)
(declare-const x11 sl.list.loc)
(declare-const x12 sl.list.loc)
(declare-const x13 sl.list.loc)
(declare-const x14 sl.list.loc)

(assert (and (sl.sepcon (sl.sepcon (sl.sepcon (sl.sepcon (sl.sepcon (sl.sepcon (sl.sepcon (sl.sepcon (sl.sepcon (sl.sepcon (sl.sepcon (sl.sepcon (sl.sepcon (sl.sepcon (sl.sepcon (sl.sepcon (sl.sepcon (sl.sepcon (sl.sepcon (sl.sepcon (sl.sepcon (sl.sepcon (sl.list.eq sl.list.null sl.list.null)
 (sl.list.neq sl.list.null x1)
)
 (sl.list.neq sl.list.null x2)
)
 (sl.list.neq x1 x2)
)
 (sl.list.neq sl.list.null x3)
)
 (sl.list.neq sl.list.null x4)
)
 (sl.list.neq x3 x4)
)
 (sl.list.neq sl.list.null x5)
)
 (sl.list.neq sl.list.null x6)
)
 (sl.list.neq x5 x6)
)
 (sl.list.neq sl.list.null x7)
)
 (sl.list.neq sl.list.null x8)
)
 (sl.list.neq x7 x8)
)
 (sl.list.neq sl.list.null x9)
)
 (sl.list.neq sl.list.null x10)
)
 (sl.list.neq x9 x10)
)
 (sl.list.neq sl.list.null x11)
)
 (sl.list.neq sl.list.null x12)
)
 (sl.list.neq x11 x12)
)
 (sl.list.neq sl.list.null x13)
)
 (sl.list.neq sl.list.null x14)
)
 (sl.list.neq x13 x14)
)
 (sl.list.eq sl.list.null sl.list.null)
)
 (not (sl.list.eq sl.list.null sl.list.null)
))
)

